%chk=SubH_AttC_wb97xd_aug-cc-pvtz.chk
%nprocs=4
%mem=3200MB
#p wb97xd/aug-cc-pvtz opt freq output=wfx

*C

0 1
C 4.947161 -2.879101 0.520860
H 5.193979 -1.884671 0.216364
H 4.832414 -2.962347 1.600435
H 4.022529 -3.218978 0.064080
H 5.729870 -3.569399 0.232843

SubH_AttC_wb97xd_aug-cc-pvtz.wfx


