%chk=SubH_Attc1ccccc1_wb97xd_aug-cc-pvtz.chk
%nprocs=4
%mem=3200MB
#p wb97xd/aug-cc-pvtz opt freq output=wfx

*c1ccccc1

0 1
C 3.416302 -1.244870 -0.609299
H 3.361925 -0.290759 -1.079821
C 3.621055 -0.776519  0.685027
C 2.901779 -1.384543  1.693444
C 3.138406 -1.008480  3.006365
C 4.080964 -0.034485  3.292182
C 4.798164  0.555916  2.262884
H 2.189901 -2.150611  1.449166
H 2.593793 -1.484345  3.801570
H 4.264547  0.255239  4.310763
H 5.539021  1.302875  2.482322
H 5.132666  0.624868  0.142583

SubH_Attc1ccccc1_wb97xd_aug-cc-pvtz.wfx


