%chk=SubH_AttC_wb97xd_aug-cc-pvtz.chk
%nprocs=4
%mem=3200MB
#p wb97xd/aug-cc-pvtz opt freq output=wfx

*C

0 1
C -1.801845 1.543862 -1.619498
H -2.049204 1.042241 -0.705021
H -1.934381 0.887265 -2.467977
H -2.447151 2.406403 -1.747796
H -0.769231 1.871236 -1.594949

SubH_AttC_wb97xd_aug-cc-pvtz.wfx


