%chk=SubH_AttC_wb97xd_aug-cc-pvtz.chk
%nprocs=4
%mem=3200MB
#p wb97xd/aug-cc-pvtz opt freq output=wfx

*C

0 1
C 6.302904 2.529092 -1.208394
H 6.066241 1.539786 -0.881789
H 5.728818 2.793603 -2.091609
H 6.075050 3.261333 -0.440719
H 7.354081 2.620292 -1.456038

SubH_AttC_wb97xd_aug-cc-pvtz.wfx


