%chk=SubH_AttCC_wb97xd_aug-cc-pvtz.chk
%nprocs=4
%mem=3200MB
#p wb97xd/aug-cc-pvtz opt freq output=wfx

*CC

0 1
C 1.063451 2.612424 -0.634113
H 0.994750 1.659355 -0.151790
C 1.815449 3.524530  0.305356
H 4.579489 0.182899  0.947050
H 2.799231 3.124826  0.517558
H 1.929291 4.500489 -0.155124
H 1.272414 3.647899  1.234924
H 0.063556 2.966993 -0.814651

SubH_AttCC_wb97xd_aug-cc-pvtz.wfx


